c   #vars: 215   #clauses: 1629   #literals: 5785
c 
p cnf 215 1629
-3 -4 0
-5 -6 0
-7 -8 0
-9 -10 0
-11 -12 0
-13 -14 0
-16 -18 0
-19 -21 0
-23 -24 0
-22 -24 0
-26 -27 0
-25 -27 0
-29 -30 0
-28 -30 0
-31 -32 0
-34 -35 0
-33 -35 0
-39 -41 0
-42 -44 0
-46 -47 0
-45 -47 0
-48 -49 0
-50 -51 0
-58 -59 0
-62 -63 0
-61 -63 0
-65 -66 0
-64 -66 0
-68 -69 0
-67 -69 0
-70 -71 -72 0
-73 -74 -75 0
-76 -77 -78 0
-79 -80 -81 0
-82 -83 -84 0
-85 -86 -87 0
-89 -90 0
-88 -90 0
-92 -93 0
-91 -93 0
-94 95 0
-95 -96 0
-94 -96 0
-97 -98 -99 0
-100 -101 -102 0
-16 17 0
16 -17 0
61 -62 -71 0
106 -107 108 0
-108 -109 0
-106 -109 0
-107 -109 0
-112 -113 0
-111 -113 0
-110 -113 0
-19 20 0
19 -20 0
-114 116 0
-115 116 0
-116 -117 0
-114 -117 0
-115 -117 0
-22 23 0
-120 -121 0
-119 -121 0
-118 -121 0
-124 -125 0
-123 -125 0
-122 -125 0
-25 26 0
-128 -129 0
-127 -129 0
-126 -129 0
-28 -29 0
-130 -131 -132 0
-133 -134 -135 0
-136 -137 -138 0
-33 -34 0
-139 -140 -141 0
-142 -143 -144 0
-146 -147 0
-150 -151 0
-149 -151 0
-148 -151 0
-154 -155 0
-153 -155 0
-152 -155 0
-158 -159 0
-157 -159 0
-156 -159 0
-39 40 0
39 -40 0
61 -62 -70 0
160 -161 162 0
-162 -163 0
-160 -163 0
61 -62 -72 0
-161 -163 0
-166 -167 0
-165 -167 0
-164 -167 0
42 -43 0
-170 -171 0
-169 -171 0
-168 -171 0
-45 46 0
-172 -173 -174 0
-175 -176 -177 0
-178 -179 -180 0
-182 -183 0
-181 -183 0
-185 -186 0
-184 -186 0
-3 73 74 75 76 77 78 0
-3 73 74 75 103 104 105 0
-189 -190 -191 0
-192 -193 -194 0
-195 -196 -197 0
-198 -199 -200 0
-201 -202 -203 0
-204 -205 -206 0
-208 -209 0
-207 -209 0
-211 -212 0
-210 -212 0
-214 -215 0
-213 -215 0
-15 -61 62 0
-61 62 98 0
-61 62 97 0
-61 -99 0
-61 -62 -98 0
-61 -62 -97 0
-1 71 72 0
-4 71 72 0
-3 71 72 0
-63 71 72 0
62 71 72 0
-61 71 72 0
-63 -70 72 0
-62 -70 72 0
-61 -70 72 0
-4 79 81 0
3 79 81 0
-8 79 81 0
-7 79 81 0
72 79 81 0
-71 79 81 0
-70 79 81 0
70 71 -72 -81 0
70 71 -72 -80 0
70 71 -72 -79 0
-70 71 72 0
-4 -71 -72 0
-3 -71 -72 0
-21 -97 98 99 0
-20 -97 98 99 0
-19 -97 98 99 0
-97 98 99 -109 0
-97 98 99 108 0
-97 98 99 -107 0
-97 98 99 106 0
-79 -81 -121 0
-79 -81 -120 0
-79 -81 -119 0
-79 -81 -118 0
-72 -80 81 0
-71 -80 81 0
70 -80 81 0
-12 -79 80 81 0
11 -79 80 81 0
-8 80 81 0
-7 80 81 0
-79 80 81 -90 0
-79 80 81 89 0
-79 80 81 -88 0
79 80 -81 -90 0
79 80 -81 -89 0
79 80 -81 -88 0
-32 89 90 0
-31 89 90 0
-12 89 90 0
-11 89 90 0
89 90 132 0
89 90 -131 0
89 90 -130 0
-8 79 -80 0
7 79 -80 0
79 -80 81 0
97 98 -99 -109 0
97 98 -99 -108 0
97 98 -99 -107 0
97 98 -99 106 0
-81 88 90 0
-80 88 90 0
79 88 90 0
88 89 90 0
-88 -89 -132 0
-88 -89 -131 0
-88 -89 130 0
-1 97 98 99 0
-15 98 99 0
-63 97 98 99 0
62 97 98 99 0
61 97 98 99 0
-12 88 89 0
-11 88 89 0
-63 -97 -98 0
-62 -97 -98 0
61 -97 -98 0
-36 97 -98 99 0
-15 97 99 0
97 -98 99 -141 0
97 -98 99 140 0
97 -98 99 139 0
-97 -99 -141 0
-97 -99 -140 0
-97 -99 -139 0
-38 -107 108 0
-107 108 -151 0
-107 108 150 0
-107 108 -149 0
-107 108 -148 0
106 -107 -121 0
106 -107 -120 0
106 -107 -119 0
106 -107 118 0
-4 106 108 109 0
-3 106 108 109 0
-21 108 0
-20 108 0
-19 108 0
72 106 108 109 0
-71 106 108 109 0
70 106 108 109 0
-15 -98 -99 0
-72 106 107 -108 0
71 106 107 -108 0
-70 106 107 -108 0
-15 -106 107 108 0
99 -106 107 108 0
-97 -106 107 108 0
-99 -106 107 -108 0
-98 -106 107 0
97 -106 107 -108 0
118 120 121 0
-21 -109 0
-20 -109 0
-19 -109 0
-106 -107 -151 0
-106 -107 -108 -150 0
-106 -107 -149 0
-106 -107 -148 0
-21 119 120 121 0
20 119 120 121 0
19 119 120 121 0
-27 119 120 121 0
-26 119 120 121 0
-25 119 120 121 0
-109 119 120 121 0
108 119 120 121 0
107 119 120 121 0
-106 119 120 121 0
-109 -118 119 -120 0
-108 -118 119 -120 0
107 -118 119 -120 0
-106 -118 119 -120 0
-81 118 119 121 0
80 118 119 121 0
-79 118 119 121 0
118 -119 -120 -132 0
118 -119 -120 -131 0
118 -119 -120 -130 0
-44 -118 -119 120 0
43 -118 -119 120 0
42 -118 -119 120 0
-27 -118 -119 120 0
-26 -118 -119 120 0
-25 -118 -119 120 0
-118 -119 120 162 0
-118 -119 -163 0
-118 -119 -120 -162 0
-118 -119 -161 0
-118 -119 -160 0
-12 131 132 0
-11 131 132 0
-32 131 132 0
-31 131 132 0
-90 131 132 0
89 131 132 0
88 131 132 0
-27 118 119 120 0
26 118 119 120 0
25 118 119 120 0
-38 -139 140 141 0
-36 140 141 0
-139 140 141 -151 0
-139 140 141 150 0
-139 140 141 -149 0
-139 140 141 148 0
-121 -131 132 0
-120 -131 132 0
119 -131 132 0
-118 -131 132 0
-90 130 131 0
-89 130 131 0
88 130 131 0
139 140 -141 -151 0
139 140 -141 -150 0
139 140 -141 -149 0
139 140 -141 148 0
-15 139 141 0
-36 139 141 0
99 139 141 0
-98 139 141 0
97 139 141 0
-130 -132 -174 0
-130 -132 -173 0
-130 -132 172 0
130 132 0
-32 130 -131 0
-31 130 -131 0
-99 -140 141 0
98 -140 141 0
-97 -140 141 0
-36 -148 149 150 0
141 -148 149 150 0
-139 -148 149 150 0
-139 -141 -183 0
-139 -141 -182 0
-139 -141 -181 0
-21 148 149 150 151 0
-20 148 149 150 151 0
-19 148 149 150 151 0
-109 148 149 151 0
108 148 149 150 151 0
107 148 149 151 0
106 148 149 151 0
-109 148 149 -150 0
-108 148 149 -150 0
107 148 149 -150 0
106 148 149 -150 0
139 -140 141 0
-36 139 -140 0
-141 -148 149 -150 0
-140 -148 149 0
139 -148 149 -150 0
-44 148 -149 150 0
-43 148 -149 150 0
-42 148 -149 150 0
-38 150 0
148 -149 150 162 0
148 -149 -163 0
148 -149 -150 -162 0
148 -149 -161 0
148 -149 160 0
-54 -148 -149 150 0
-148 -149 150 190 0
-148 -149 150 189 0
-148 -149 -191 0
-148 -149 -150 -190 0
-148 -149 -150 -189 0
-38 161 162 163 0
-44 162 163 0
-43 162 163 0
-42 162 163 0
-151 161 162 163 0
150 161 162 163 0
149 161 162 163 0
-148 161 162 163 0
-121 160 161 163 0
-120 160 161 163 0
119 160 161 163 0
118 160 161 163 0
-56 -161 162 0
-44 -161 162 0
-43 -161 162 0
-42 -161 162 0
-161 162 -200 0
-161 162 199 0
-161 162 198 0
160 -161 -174 0
160 -161 -173 0
160 -161 -172 0
-151 -160 161 -162 0
-150 -160 161 -162 0
149 -160 161 -162 0
-148 -160 161 -162 0
-44 172 173 174 0
-43 172 173 174 0
42 172 173 174 0
-163 172 173 174 0
162 172 173 174 0
161 172 173 174 0
-160 172 173 174 0
-163 -172 -173 0
-162 -172 -173 0
161 -172 -173 0
-160 -172 -173 0
160 162 163 0
-160 -161 -200 0
-160 -161 -162 -199 0
-160 -161 -162 -198 0
-32 -172 173 174 0
31 -172 173 174 0
-49 173 174 0
-48 173 174 0
132 -172 173 174 0
-131 -172 173 174 0
130 -172 173 174 0
-44 160 162 0
-43 160 162 0
-42 160 162 0
-132 172 173 -174 0
131 172 173 -174 0
-130 172 173 -174 0
-38 190 191 0
-54 190 191 0
-151 190 191 0
150 190 191 0
149 190 191 0
148 190 191 0
-151 -189 191 0
-150 -189 191 0
149 -189 191 0
148 -189 191 0
-59 172 -173 174 0
58 172 -173 174 0
-49 172 174 0
-48 172 174 0
172 -173 174 -209 0
172 -173 174 208 0
172 -173 174 -207 0
-172 -174 -209 0
-172 -174 -208 0
-172 -174 -207 0
36 181 182 183 0
-52 182 183 0
141 181 182 183 0
-140 181 182 183 0
139 181 182 183 0
-49 -173 -174 0
48 -173 -174 0
-141 181 -182 0
140 181 -182 0
-139 181 -182 0
54 -181 182 0
-52 -181 182 0
-181 182 191 0
-181 182 -189 0
-181 -182 -191 0
-181 -190 0
-181 -182 189 0
-56 189 -190 191 0
-54 189 191 0
189 -190 191 200 0
189 -190 191 -199 0
189 -190 191 -198 0
52 -183 0
-183 189 190 -191 0
-182 189 190 -191 0
181 189 190 -191 0
-44 198 199 200 0
-43 198 199 200 0
-42 198 199 200 0
-163 198 199 200 0
162 198 199 200 0
161 198 199 200 0
160 198 199 200 0
-163 -198 -199 0
-162 -198 -199 0
161 -198 -199 0
160 -198 -199 0
-189 190 191 0
-189 190 -200 0
-189 190 -199 0
-189 190 198 0
-54 -198 199 200 0
-56 199 200 0
191 -198 199 200 0
-190 -198 199 200 0
189 -198 199 200 0
-54 -190 -191 0
-191 198 199 -200 0
190 198 199 -200 0
-189 198 199 -200 0
5 76 -77 78 0
-24 76 -77 78 0
-23 76 -77 78 0
-22 76 -77 78 0
76 -77 78 -117 0
76 -77 78 116 0
76 -77 78 -115 0
76 -77 78 -114 0
-73 -75 -113 0
-73 -75 -112 0
-73 -75 -111 0
-73 -75 -110 0
-59 198 -199 200 0
-58 198 -199 200 0
-56 198 200 0
198 -199 200 -209 0
198 -199 200 208 0
198 -199 200 207 0
-198 -200 -209 0
-198 -200 -208 0
-198 -200 207 0
-56 208 209 0
-59 208 209 0
-58 208 209 0
200 208 209 0
-199 208 209 0
198 208 209 0
-56 -199 -200 0
-174 207 209 0
173 207 209 0
-172 207 209 0
207 208 209 0
-200 -207 -208 0
199 -207 -208 0
-198 -207 -208 0
-2 68 0
-6 67 68 69 0
-5 67 68 69 0
67 69 -78 0
67 68 69 77 0
67 68 69 76 0
-59 207 208 0
-58 207 208 0
64 -65 -75 0
64 -65 -74 0
64 -65 -73 0
-1 18 -64 65 0
1 -18 -64 65 0
-17 -64 65 0
-16 -64 65 0
-2 -64 65 0
-15 -64 65 0
-64 65 101 0
-64 65 100 0
-64 -102 0
-64 -65 -101 0
-64 -65 -100 0
2 -4 73 74 75 0
-2 4 73 74 75 0
-1 73 74 75 0
-66 73 74 75 0
65 73 74 75 0
-64 73 74 75 0
-66 -73 -74 0
-65 -73 -74 0
-64 -73 -74 0
-4 6 -74 -75 0
4 -6 -74 -75 0
-3 5 -74 -75 0
3 -5 -74 -75 0
-4 10 -73 74 75 0
4 -10 -73 74 75 0
-3 9 -73 74 75 0
3 -9 -73 74 75 0
-6 74 75 0
-5 74 75 0
-8 -73 74 75 0
-7 -73 74 75 0
-73 74 75 -84 0
-73 74 75 83 0
-73 74 75 82 0
73 74 -75 -84 0
73 74 -75 -83 0
73 74 -75 -82 0
6 -8 82 83 84 0
-6 8 82 83 84 0
5 -7 83 84 0
-5 7 82 83 84 0
-4 82 83 84 0
-3 82 83 84 0
75 82 83 84 0
-74 82 83 84 0
-73 82 83 84 0
-75 -82 -83 0
-74 -82 -83 0
73 -82 -83 0
-8 30 82 -83 84 0
8 -30 82 -83 84 0
-7 29 82 -83 84 0
7 -29 82 -83 84 0
-28 82 -83 84 0
-10 82 84 0
-9 82 84 0
-27 82 -83 84 0
-26 82 -83 84 0
-25 82 -83 84 0
82 -83 84 -125 0
82 -83 84 124 0
82 -83 84 -123 0
82 -83 84 -122 0
-82 -84 -125 0
-82 -84 -124 0
-82 -84 -123 0
-82 -84 -122 0
-8 10 -83 -84 0
8 -10 -83 -84 0
-7 9 -83 -84 0
7 -9 -83 -84 0
-8 14 -82 83 84 0
8 -14 -82 83 84 0
-7 -82 83 84 0
-13 -82 83 84 0
-10 83 84 0
-9 83 84 0
-12 -82 83 84 0
-11 -82 83 84 0
-82 83 84 -93 0
-82 83 84 92 0
-82 83 84 -91 0
82 83 -84 -93 0
82 83 -84 -92 0
82 83 -84 -91 0
10 -12 91 92 93 0
-10 12 91 92 93 0
9 -11 91 92 0
-9 11 91 92 93 0
-14 92 93 0
-13 92 0
-8 91 92 93 0
-7 91 92 93 0
84 91 92 93 0
-83 91 93 0
-82 91 92 93 0
-84 91 -92 0
-83 91 -92 0
82 91 -92 0
-15 24 -100 101 102 0
15 -24 -100 101 102 0
-23 -100 101 102 0
-22 -100 101 102 0
-21 -100 101 102 0
-20 -100 101 102 0
-19 -100 101 102 0
-100 101 102 -113 0
-100 101 102 112 0
-100 101 102 -111 0
-100 101 102 110 0
100 101 -102 -113 0
100 101 -102 -112 0
100 101 -102 -111 0
100 101 -102 110 0
-12 14 -93 0
12 -14 -93 0
-11 -93 0
-12 35 -91 92 0
12 -35 -91 92 0
-11 34 -91 92 0
11 -34 -91 92 0
-33 -91 92 0
-14 -91 92 0
-32 -91 92 0
-31 -91 92 0
-91 92 135 0
-91 92 -133 0
-91 -92 -135 0
-91 -134 0
-91 -92 133 0
2 -15 100 101 102 0
-2 15 100 101 102 0
-18 101 102 0
-17 101 102 0
-16 101 102 0
-1 100 101 102 0
-66 100 101 102 0
65 100 101 102 0
64 100 101 102 0
-66 -100 -101 0
-65 -100 -101 0
64 -100 -101 0
-15 18 -101 -102 0
15 -18 -101 -102 0
-17 -101 -102 0
-16 -101 -102 0
-15 37 100 -101 102 0
15 -37 100 -101 102 0
-18 100 102 0
-17 100 102 0
-16 100 102 0
-36 100 -101 102 0
100 -101 102 -144 0
100 -101 102 143 0
100 -101 102 142 0
-100 -102 -144 0
-100 -102 -143 0
-100 -102 -142 0
-21 30 110 -111 112 0
21 -30 110 -111 112 0
-20 29 110 -111 112 0
20 -29 110 -111 112 0
-19 28 110 -111 112 0
19 -28 110 -111 112 0
-27 110 -111 112 0
-26 110 -111 112 0
-25 110 -111 112 0
110 -111 112 124 0
110 -111 -125 0
110 -111 -112 -124 0
110 -111 -123 0
110 -111 122 0
6 -21 110 111 112 113 0
-6 21 110 111 112 113 0
5 -20 110 111 112 113 0
-5 20 110 111 112 113 0
-19 110 111 112 113 0
-24 112 113 0
-23 112 113 0
-22 112 113 0
-4 110 111 112 113 0
-3 110 111 112 113 0
75 110 111 112 113 0
-74 110 111 112 113 0
73 110 111 112 113 0
-75 110 111 -112 0
74 110 111 -112 0
-73 110 111 -112 0
-21 24 -113 0
21 -24 112 0
-20 23 -113 0
20 -23 112 0
-19 22 -113 0
19 -22 112 0
18 -21 -110 111 112 0
-18 21 -110 111 112 0
17 -20 -110 111 112 0
-17 20 -110 111 112 0
16 -19 -110 111 112 0
-16 19 -110 111 112 0
-24 -110 112 0
-23 -110 112 0
-22 -110 112 0
-15 -110 111 112 0
102 -110 111 112 0
-100 -110 111 112 0
-102 -110 111 -112 0
-101 -110 111 0
100 -110 111 -112 0
10 -27 122 123 124 125 0
-10 27 122 123 124 125 0
9 -26 122 123 124 125 0
-9 26 122 123 124 125 0
-25 122 123 124 125 0
-30 124 125 0
-29 124 125 0
-28 124 125 0
-8 122 123 124 125 0
-7 122 123 124 125 0
84 122 123 124 125 0
-83 122 123 124 125 0
82 122 123 124 125 0
-84 122 123 -124 0
83 122 123 -124 0
-82 122 123 -124 0
-21 41 -110 -111 112 0
21 -41 -110 -111 112 0
-20 40 -110 -111 112 0
20 -40 -110 -111 112 0
-19 39 -110 -111 112 0
19 -39 -110 -111 112 0
-24 -111 112 0
-23 -111 112 0
-22 -111 112 0
-38 -110 -111 112 0
-110 -111 112 154 0
-110 -111 -155 0
-110 -111 -112 -154 0
-110 -111 -153 0
-110 -111 -152 0
24 -27 -122 123 124 0
-24 27 -122 123 124 0
23 -26 -122 123 124 0
-23 26 -122 123 124 0
22 -25 -122 123 124 0
-22 25 -122 123 124 0
-21 -122 123 124 0
-20 -122 123 124 0
-19 -122 123 124 0
112 -122 123 124 0
-113 -122 123 0
-112 -122 123 -124 0
111 -122 123 0
-110 -122 123 0
-27 30 -125 0
27 -30 124 0
-26 29 -125 0
26 -29 -125 0
-25 28 -125 0
25 -28 -125 0
-27 35 122 -123 124 0
27 -35 122 -123 124 0
-26 34 122 -123 124 0
26 -34 122 -123 124 0
-25 33 122 -123 124 0
25 -33 122 -123 124 0
-30 -123 124 0
-29 -123 124 0
-28 -123 124 0
-32 122 -123 124 0
-31 122 -123 124 0
122 -123 124 134 0
122 -123 124 133 0
122 -123 -135 0
122 -123 -124 -134 0
122 -123 -124 -133 0
-27 47 -122 -123 124 0
27 -47 -122 -123 124 0
-26 46 -122 -123 124 0
26 -46 -122 -123 124 0
-25 45 -122 -123 124 0
25 -45 -122 -123 124 0
-30 -122 124 0
-29 -122 124 0
-28 -122 124 0
-44 -122 -123 124 0
-43 -122 -123 124 0
-42 -122 -123 124 0
-122 -123 124 166 0
-122 -123 -167 0
-122 -123 -124 -166 0
-122 -123 -165 0
-122 -123 -164 0
14 -32 -133 134 135 0
-14 32 -133 134 135 0
13 -31 -133 134 135 0
-13 31 -133 134 135 0
-12 -133 134 135 0
-11 -133 134 135 0
-93 -133 134 135 0
92 -133 134 135 0
91 -133 134 135 0
-93 133 134 -135 0
-92 133 134 -135 0
91 133 134 -135 0
30 -32 133 134 135 0
-30 32 133 134 135 0
-29 133 134 135 0
28 -31 133 134 135 0
-28 31 133 134 135 0
-35 134 135 0
-34 134 135 0
-33 134 135 0
-27 133 134 135 0
-26 133 134 135 0
-25 133 134 135 0
-125 133 134 135 0
124 133 134 135 0
123 133 134 135 0
-122 133 134 135 0
-125 -133 -134 0
-124 -133 -134 0
123 -133 -134 0
-122 -133 -134 0
-32 35 -134 -135 0
32 -35 -134 -135 0
-34 -134 -135 0
-31 33 -134 -135 0
31 -33 -134 -135 0
-36 41 -142 143 144 0
36 -41 -142 143 144 0
-40 -142 143 144 0
-39 -142 143 144 0
-38 -142 143 144 0
-142 143 144 -155 0
-142 143 144 154 0
-142 143 144 -153 0
-142 143 144 152 0
142 143 -144 -155 0
142 143 -144 -154 0
142 143 -144 -153 0
142 143 -144 152 0
-32 51 133 -134 135 0
32 -51 133 -134 135 0
-31 50 133 -134 135 0
31 -50 133 -134 135 0
-35 133 135 0
-34 133 135 0
-33 133 135 0
-49 133 -134 135 0
-48 133 -134 135 0
133 -134 135 177 0
133 -134 135 -176 0
133 -134 135 -175 0
-133 -135 -177 0
-133 -135 -176 0
-133 -135 175 0
18 -36 142 143 144 0
-18 36 142 143 144 0
-17 142 143 144 0
-16 142 143 144 0
-37 143 144 0
-15 142 143 144 0
102 142 143 144 0
-101 142 143 144 0
100 142 143 144 0
-102 -142 -143 0
101 -142 -143 0
-100 -142 -143 0
-36 37 -143 -144 0
36 -37 -143 -144 0
-36 53 142 -143 144 0
36 -53 142 -143 144 0
-37 142 144 0
-52 142 -143 144 0
142 -143 144 -186 0
142 -143 144 185 0
142 -143 144 -184 0
-142 -144 -186 0
-142 -144 -185 0
-142 -144 -184 0
24 -38 152 153 154 155 0
-24 38 152 153 154 155 0
-23 152 153 154 155 0
-22 152 153 154 155 0
-41 154 155 0
-40 154 0
-39 154 0
-21 152 153 154 155 0
-20 152 153 154 155 0
-19 152 153 154 155 0
-113 152 153 155 0
112 152 153 154 155 0
111 152 153 155 0
110 152 153 155 0
-113 152 153 -154 0
-112 152 153 -154 0
111 152 153 -154 0
110 152 153 -154 0
37 -38 -152 153 154 0
-37 38 -152 153 154 0
-36 -152 153 154 0
144 -152 153 154 0
-142 -152 153 154 0
-144 -152 153 -154 0
-143 -152 153 0
142 -152 153 -154 0
-38 41 -155 0
38 -41 -155 0
-38 47 152 -153 154 0
38 -47 152 -153 154 0
-46 152 -153 154 0
-45 152 -153 154 0
-41 -153 154 0
-44 152 -153 154 0
-43 152 -153 154 0
-42 152 -153 154 0
152 -153 154 166 0
152 -153 -167 0
152 -153 -154 -166 0
152 -153 -165 0
152 -153 164 0
-38 55 -152 -153 154 0
38 -55 -152 -153 154 0
-41 -152 154 0
-54 -152 -153 154 0
-152 -153 154 193 0
-152 -153 154 192 0
-152 -153 -194 0
-152 -153 -154 -193 0
-152 -153 -154 -192 0
30 -44 164 165 166 167 0
-30 44 164 165 166 167 0
29 -43 164 166 167 0
-29 43 164 165 166 167 0
28 -42 164 165 166 167 0
-28 42 164 165 166 167 0
-47 166 167 0
-46 166 167 0
-45 166 167 0
-27 164 165 166 167 0
-26 164 165 166 167 0
-25 164 165 166 167 0
-125 164 165 167 0
124 164 165 166 167 0
123 164 165 167 0
122 164 165 167 0
-125 164 165 -166 0
-124 164 165 -166 0
123 164 165 -166 0
122 164 165 -166 0
-44 51 164 -165 166 0
44 -51 164 -165 166 0
-42 50 -165 166 0
42 -50 164 -165 166 0
-49 164 -165 166 0
-48 164 -165 166 0
164 -165 166 176 0
164 -165 166 175 0
164 -165 -177 0
164 -165 -166 -176 0
164 -165 -166 -175 0
-44 47 -167 0
44 -47 166 0
-43 46 -167 0
43 -46 166 0
-42 45 -167 0
42 -45 166 0
41 -44 -164 165 166 0
-41 44 -164 165 166 0
40 -43 -164 166 0
-40 43 -164 165 166 0
39 -42 -164 166 0
-39 42 -164 165 166 0
-47 -164 166 0
-46 -164 166 0
-45 -164 166 0
-38 -164 165 166 0
154 -164 165 166 0
-155 -164 165 0
-154 -164 165 -166 0
153 -164 165 0
-152 -164 165 0
47 -49 175 176 177 0
-47 49 175 176 177 0
-46 175 176 177 0
45 -48 175 177 0
-45 48 175 176 177 0
-44 175 176 177 0
-43 175 176 177 0
-42 175 176 177 0
-167 175 176 177 0
166 175 176 177 0
165 175 176 177 0
-164 175 176 177 0
-167 -175 -176 0
-166 -175 -176 0
165 -175 -176 0
-164 -175 -176 0
-44 57 -164 -165 166 0
44 -57 -164 -165 166 0
-43 -165 166 0
-42 -164 -165 166 0
-47 -165 166 0
-46 -165 166 0
-45 -165 166 0
-56 -164 -165 166 0
-164 -165 166 202 0
-164 -165 166 201 0
-164 -165 -203 0
-164 -165 -166 -202 0
-164 -165 -166 -201 0
35 -49 -175 176 177 0
-35 49 -175 176 177 0
-34 -175 176 177 0
33 -48 -175 176 177 0
-33 48 -175 176 177 0
-51 176 177 0
-50 176 177 0
-32 -175 176 177 0
-31 -175 176 177 0
135 -175 176 177 0
-134 -175 176 177 0
133 -175 176 177 0
-135 175 176 -177 0
134 175 176 -177 0
-133 175 176 -177 0
-49 51 -176 -177 0
49 -51 -176 -177 0
-48 50 -176 -177 0
48 -50 -176 -177 0
41 -54 192 193 194 0
-41 54 192 193 194 0
-40 192 193 194 0
-39 192 193 194 0
-38 192 193 194 0
-155 192 193 194 0
154 192 193 194 0
153 192 193 194 0
152 192 193 194 0
-155 -192 -193 0
-154 -192 -193 0
153 -192 -193 0
152 -192 -193 0
-49 60 175 -176 177 0
49 -60 175 -176 177 0
-48 175 -176 177 0
-51 175 177 0
-50 175 177 0
-59 175 -176 177 0
-58 175 -176 177 0
175 -176 177 -212 0
175 -176 177 211 0
175 -176 177 -210 0
-175 -177 -212 0
-175 -177 -211 0
-175 -177 -210 0
37 -52 184 185 186 0
-37 52 184 185 186 0
-53 185 186 0
-36 184 185 186 0
144 184 185 186 0
-143 184 185 186 0
142 184 185 186 0
-144 184 -185 0
143 184 -185 0
-142 184 -185 0
-52 53 -186 0
52 -53 185 0
-52 55 -184 185 0
52 -55 -184 185 0
-53 -184 185 0
-54 -184 185 0
-184 185 194 0
-184 185 -192 0
-184 -185 -194 0
-184 -193 0
-184 -185 192 0
53 -54 -192 193 194 0
-53 54 -192 193 194 0
-55 193 194 0
-52 -192 193 194 0
-186 -192 193 194 0
185 -192 193 194 0
184 -192 193 194 0
-186 192 193 -194 0
-185 192 193 -194 0
184 192 193 -194 0
-54 55 -193 -194 0
54 -55 -193 -194 0
47 -56 201 202 203 0
-47 56 201 202 203 0
-46 201 202 203 0
-45 201 202 203 0
-44 201 202 203 0
-43 201 202 203 0
-42 201 202 203 0
-167 201 202 203 0
166 201 202 203 0
165 201 202 203 0
164 201 202 203 0
-167 -201 -202 0
-166 -201 -202 0
165 -201 -202 0
164 -201 -202 0
-54 57 192 -193 194 0
54 -57 192 -193 194 0
-55 192 194 0
-56 192 -193 194 0
192 -193 194 203 0
192 -193 194 -202 0
192 -193 194 -201 0
-192 -194 -203 0
-192 -194 -202 0
-192 -194 201 0
55 -56 -201 202 203 0
-55 56 -201 202 203 0
-57 202 203 0
-54 -201 202 203 0
194 -201 202 203 0
-193 -201 202 203 0
192 -201 202 203 0
-194 201 202 -203 0
193 201 202 -203 0
-192 201 202 -203 0
-4 61 62 63 0
-56 57 -202 -203 0
56 -57 -202 -203 0
-76 -78 -117 0
-76 -78 -116 0
-76 -78 -115 0
-76 -78 -114 0
-56 60 201 -202 203 0
56 -60 201 -202 203 0
-57 201 203 0
-59 201 -202 203 0
-58 201 -202 203 0
201 -202 203 -212 0
201 -202 203 211 0
201 -202 203 210 0
-201 -203 -212 0
-201 -203 -211 0
-201 -203 210 0
51 -59 210 211 212 0
-51 59 210 211 212 0
50 -58 211 0
-50 58 210 211 212 0
-60 211 212 0
-49 210 211 212 0
-48 210 211 212 0
177 210 211 212 0
-176 210 211 212 0
175 210 211 212 0
-177 210 -211 0
176 210 -211 0
-175 210 -211 0
-3 61 62 63 0
-59 60 -212 0
59 -60 -212 0
-58 -212 0
57 -59 -210 211 0
-57 59 -210 211 0
-58 -210 211 0
-60 -210 211 0
-56 -210 211 0
203 -210 211 0
-202 -210 211 0
201 -210 211 0
-203 -210 -211 0
202 -210 -211 0
-201 -210 -211 0
-4 24 73 -74 75 0
4 -24 73 -74 75 0
-3 23 73 -74 75 0
3 -23 73 -74 75 0
-22 73 -74 75 0
-6 73 75 0
-5 73 75 0
-21 73 -74 75 0
-20 73 -74 75 0
-19 73 -74 75 0
73 -74 75 -113 0
73 -74 75 112 0
73 -74 75 -111 0
73 -74 75 -110 0
67 -68 -78 0
67 -68 -77 0
67 -68 -76 0
-1 62 0
61 63 -72 0
61 62 63 71 0
61 62 63 70 0
-18 -67 68 0
-17 -67 68 0
-16 -67 68 0
-67 68 104 0
-67 68 103 0
-67 -105 0
-67 -68 -104 0
-67 -68 -103 0
-6 76 78 0
-2 76 77 78 0
-69 76 77 78 0
68 76 77 78 0
-67 76 77 78 0
-69 -76 -77 0
-68 -76 -77 0
-67 -76 -77 0
-6 77 78 0
-5 77 78 0
-10 -76 77 78 0
-9 -76 77 78 0
-76 77 78 -87 0
-76 77 78 86 0
-76 77 78 85 0
76 77 -78 -87 0
76 77 -78 -86 0
76 77 -78 -85 0
-6 86 87 0
-5 86 87 0
78 86 87 0
-77 86 87 0
-76 86 87 0
-6 -77 -78 0
-5 -77 -78 0
-10 85 87 0
-9 85 87 0
-30 85 -86 87 0
-29 85 -86 87 0
-28 85 -86 87 0
85 -86 87 -129 0
85 -86 87 128 0
85 -86 87 -127 0
85 -86 87 -126 0
-85 -87 -129 0
-85 -87 -128 0
-85 -87 -127 0
-85 -87 -126 0
-78 -85 -86 0
-77 -85 -86 0
76 -85 -86 0
-10 86 87 0
-9 86 87 0
-85 86 87 0
85 86 -87 -96 0
85 86 -87 -95 0
85 86 -87 -94 0
-17 103 104 105 0
-2 103 104 105 0
-69 103 104 105 0
68 103 104 105 0
67 103 104 105 0
-10 -86 -87 0
-9 -86 -87 0
-18 104 105 0
17 -103 104 0
-16 104 105 0
-24 -103 104 0
-23 -103 104 0
-22 -103 104 0
-103 104 -117 0
-103 104 116 0
-103 104 -115 0
-103 104 114 0
104 -105 -117 0
104 -105 -116 0
104 -105 -115 0
104 -105 114 0
-87 94 96 0
-86 94 96 0
85 94 96 0
95 96 0
-94 -138 0
-94 -137 0
-94 136 0
-14 95 0
13 95 0
-69 -103 -104 0
-68 -103 -104 0
67 -103 -104 0
-18 103 105 0
17 103 -104 105 0
16 103 -104 105 0
-37 103 -104 105 0
103 -104 105 -147 0
103 -104 105 146 0
103 -104 105 145 0
-103 -105 0
29 -126 127 128 0
-24 -126 127 128 0
-23 -126 127 128 0
-22 -126 127 128 0
116 -126 127 128 0
114 -115 -129 0
114 -115 -128 0
114 -115 -127 0
114 -115 126 0
-29 126 128 0
-10 126 127 128 129 0
-9 126 127 128 129 0
87 126 127 128 129 0
-86 126 127 128 129 0
85 126 127 128 129 0
-18 -104 -105 0
-17 -104 -105 0
-16 -104 -105 0
-78 114 115 117 0
77 114 115 117 0
-76 114 115 117 0
-105 -114 115 0
-104 -114 115 0
103 -114 115 0
-24 116 0
23 116 0
-22 116 0
116 117 0
-114 -115 -159 0
-114 -115 -158 0
-114 -115 -157 0
-114 -115 -156 0
-117 -126 127 0
-116 -126 127 -128 0
115 -126 127 0
-114 -126 127 0
-87 126 127 -128 0
86 126 127 -128 0
-85 126 127 -128 0
-30 128 0
-28 128 0
-35 126 -127 128 0
-34 126 -127 128 0
-33 126 -127 128 0
126 -127 128 137 0
126 -127 128 136 0
126 -127 -138 0
126 -127 -128 -137 0
126 -127 -128 -136 0
-29 -127 128 0
-47 -126 -127 128 0
-46 -126 -127 128 0
-45 -126 -127 128 0
-126 -127 128 170 0
-126 -127 -171 0
-126 -127 -128 -170 0
-126 -127 -169 0
-126 -127 -168 0
33 -136 137 138 0
-14 -136 137 138 0
-13 -136 137 138 0
-96 -136 137 138 0
95 -136 137 138 0
94 -136 137 138 0
-29 -129 0
-35 137 138 0
-34 137 138 0
-30 136 137 0
-29 136 137 0
-28 136 137 0
-129 136 137 0
128 136 137 0
127 136 137 0
-126 136 137 0
-129 -136 -137 0
-128 -136 -137 0
127 -136 -137 0
-126 -136 -137 0
136 137 -138 0
40 157 158 159 0
-39 156 158 0
-24 156 157 158 159 0
-23 156 157 158 159 0
-22 156 157 158 159 0
-117 156 157 159 0
116 156 157 158 159 0
115 156 157 159 0
114 156 157 159 0
145 -159 0
145 -158 0
145 -157 0
145 156 0
35 136 -137 138 0
-34 136 138 0
-33 136 138 0
-51 136 -137 138 0
-50 136 -137 138 0
136 -137 138 180 0
136 -137 138 -179 0
136 -137 138 -178 0
-136 -138 -180 0
-136 -138 -179 0
-136 -138 178 0
40 -156 157 158 0
39 -156 157 158 0
-37 -156 157 158 0
147 -156 157 158 0
-145 -156 157 158 0
-35 -137 -138 0
-34 -137 -138 0
-33 -137 -138 0
-105 147 0
104 147 0
-103 147 0
145 147 0
-3 65 73 74 75 0
-145 146 -188 0
-145 146 -187 0
146 147 0
-117 156 157 -158 0
-116 156 157 -158 0
115 156 157 -158 0
114 156 157 -158 0
145 -146 0
-147 -156 157 -158 0
-146 -156 157 0
-41 158 0
-47 156 -157 158 0
-46 156 -157 158 0
-45 156 -157 158 0
156 -157 158 170 0
156 -157 -171 0
156 -157 -158 -170 0
156 -157 -169 0
156 -157 168 0
-40 -157 158 0
-39 -157 158 0
-55 -156 -157 158 0
-156 -157 158 196 0
-156 -157 158 195 0
-156 -157 -197 0
-156 -157 -158 -196 0
-156 -157 -158 -195 0
-1 6 64 65 66 0
-47 169 170 0
-46 170 0
-45 170 0
-30 168 169 170 171 0
-29 168 169 170 171 0
-28 168 169 170 171 0
-129 168 169 171 0
128 168 169 170 171 0
127 168 169 171 0
126 168 169 171 0
-129 168 169 -170 0
-128 168 169 -170 0
127 168 169 -170 0
126 168 169 -170 0
47 168 -169 170 0
-51 168 -169 170 0
-50 168 -169 170 0
168 -169 170 179 0
168 -169 170 178 0
-40 -159 0
-39 -159 0
168 -169 -180 0
168 -169 -170 -179 0
168 -169 -170 -178 0
1 -6 64 65 66 0
-145 146 187 188 0
-41 -168 169 170 0
-40 -168 169 170 0
-39 -168 169 170 0
158 -168 169 170 0
-159 -168 169 0
-158 -168 169 -170 0
157 -168 169 0
-156 -168 169 0
-41 195 196 197 0
-40 195 196 197 0
-39 195 196 197 0
-159 195 196 197 0
158 195 196 197 0
157 195 196 197 0
156 195 196 197 0
-171 180 0
-170 180 0
169 180 0
-168 180 0
-47 -168 170 0
187 188 -195 196 197 0
-57 -168 -169 170 0
-168 -169 170 205 0
-168 -169 170 204 0
-168 -169 -206 0
-168 -169 -170 -205 0
-168 -169 -170 -204 0
-53 188 0
-3 73 74 75 100 101 102 0
187 188 195 196 -197 0
-138 178 179 0
137 178 179 0
-136 178 179 0
178 180 0
-159 -195 -196 0
-158 -195 -196 0
157 -195 -196 0
156 -195 -196 0
179 180 0
-178 179 -215 0
-178 179 -214 0
-178 179 -213 0
51 178 -179 0
-50 178 -179 0
-147 187 -188 0
146 187 -188 0
-145 187 -188 0
-55 -187 188 0
-187 188 197 0
-187 188 -195 0
-187 -188 -197 0
-187 -196 0
-187 -188 195 0
-55 196 197 0
-53 -195 196 197 0
-2 -3 73 74 75 0
188 -195 196 197 0
187 -195 196 197 0
-3 68 73 74 75 0
-188 195 196 -197 0
187 195 196 -197 0
-5 64 65 66 0
-47 204 205 206 0
-46 204 205 206 0
-45 204 205 206 0
-171 204 205 206 0
170 204 205 206 0
169 204 205 206 0
168 204 205 206 0
-1 2 -66 0
-171 -204 -205 0
-170 -204 -205 0
169 -204 -205 0
168 -204 -205 0
-55 195 197 0
-57 195 -196 197 0
195 -196 197 206 0
195 -196 197 -205 0
195 -196 197 -204 0
-195 -197 -206 0
-195 -197 -205 0
-195 -197 204 0
-57 205 206 0
-55 -204 205 206 0
197 -204 205 206 0
-196 -204 205 206 0
195 -204 205 206 0
-55 -196 -197 0
-197 204 205 -206 0
196 204 205 -206 0
-195 204 205 -206 0
-2 65 66 0
-4 64 65 66 0
-3 64 65 66 0
64 66 -75 0
64 65 66 74 0
64 65 66 73 0
1 -2 65 0
-57 204 206 0
-60 204 -205 206 0
204 -205 206 -215 0
204 -205 206 214 0
204 -205 206 213 0
-204 -206 -215 0
-204 -206 -214 0
-204 -206 213 0
60 213 214 215 0
-51 213 214 215 0
-50 213 214 215 0
180 213 214 215 0
-179 213 214 215 0
178 213 214 215 0
-57 -205 -206 0
-180 213 -214 0
179 213 -214 0
-178 213 -214 0
-60 -213 214 0
-57 -213 214 0
206 -213 214 0
-205 -213 214 0
204 -213 214 0
-206 -213 -214 0
205 -213 -214 0
-204 -213 -214 0
-21 70 -71 72 0
-20 70 -71 72 0
-19 70 -71 72 0
-4 70 72 0
-3 70 72 0
70 -71 72 -109 0
70 -71 72 108 0
70 -71 72 -107 0
70 -71 72 -106 0
-60 -215 0
-70 71 -109 0
-70 71 -108 0
-70 71 -107 0
-70 71 -106 0
